HFSDDW
15	6	3
0	71	1	5	2	61
0	16	1	15	2	97
0	91	1	42	2	45
0	48	1	96	2	27
0	39	1	10	2	88
0	78	1	31	2	33
0	53	1	54	2	65
0	92	1	30	2	47
0	20	1	25	2	87
0	13	1	27	2	41
0	93	1	64	2	60
0	75	1	52	2	92
0	84	1	88	2	88
0	60	1	70	2	70
0	72	1	46	2	26
LBCmax: 518
RELDUE
-1	443	1	8
-1	76	2	1
-1	291	5	3
-1	368	6	6
-1	304	6	9
-1	88	9	4
-1	4	4	9
-1	82	8	9
-1	71	2	8
-1	191	2	3
-1	358	9	2
-1	335	3	6
-1	21	2	8
-1	447	4	4
-1	414	3	7
DDW
434	452
70	82
262	320
331	405
286	322
79	97
4	4
76	88
64	78
172	210
347	369
312	358
21	21
407	487
381	447
